3
40
9551
[[484,978,645,855,479,298,559,289,897,753, 40,505,953,582,696,405,328,810, 15,369,250,796,184,276, 72,311,702,226,261,326, 23,950,738,947,589,164,421,404, 84, 49],
 [548,562,856, 42,319,286,612,338,940,961,991,486, 71,126,823,768,427,461,478,190,251,124,596, 25,519, 44,300,393,960,400,176,571,229,130,894,555,772,183,861,265],
 [943, 36,756,622, 86,348,843,361,348,749,149,110,411,606,407,198,284,699,713,925,396,213,420,550,347,310,583,292,772,880,597,748,611,120,600,335,767,201,705,868]]
[861, 46,302,126,767,900,665,406,197,831,285,429,108,756,400,409,418,778,558,252,791,437,223,142,605,632,908,556,400,345, 44,392,136,613,735,494, 75,447,848,786]